977
512
2319
805
34
275
264
65
213
5957
678
0
136
1025
665
43
111
616
521
192
169
188
277
1298
17263
278
454
170
10743
64
9269
2879
228
697
360
730
160
59
235
85
858
1040
545
3228
583
38
332
626
407
770
317
138
3309
922
3422
565
3350
6181
377
707
1493
413
495
140
253
37
113
102
1688
247
2134
269
217
877
244
291
94
155
63
223
50
91
17458
846
1324
237
102219
704
459
1038
598
0
701
207
388
147
370
1553
290
37
